5553
7884
889
9770
2312
7013
7861
443
7557
1390
1724
9458
5640
7732
2870
7418
4270
4816
9396
6318
1277
5335
4052
884
948
7142
9201
4896
8472
3570
9034
2527
5594
7614
9157
5272
5792
4315
4480
4431
3077
5072
2686
9454
9794
9470
8766
7045
1113
6399
1575
